c colouring generated by benchmark framework
p edge 275 274
v 1 1
v 2 0
v 3 1
v 4 1
v 5 2
v 6 2
v 7 1
v 8 1
v 9 1
v 10 1
v 11 0
v 12 1
v 13 2
v 14 2
v 15 0
v 16 1
v 17 1
v 18 2
v 19 1
v 20 2
v 21 2
v 22 0
v 23 1
v 24 1
v 25 0
v 26 0
v 27 2
v 28 2
v 29 1
v 30 1
v 31 0
v 32 1
v 33 0
v 34 0
v 35 1
v 36 2
v 37 0
v 38 1
v 39 1
v 40 2
v 41 1
v 42 0
v 43 0
v 44 0
v 45 2
v 46 2
v 47 2
v 48 2
v 49 2
v 50 1
v 51 0
v 52 2
v 53 0
v 54 1
v 55 0
v 56 2
v 57 2
v 58 2
v 59 0
v 60 0
v 61 0
v 62 0
v 63 0
v 64 1
v 65 1
v 66 0
v 67 2
v 68 0
v 69 1
v 70 1
v 71 0
v 72 0
v 73 0
v 74 0
v 75 0
v 76 2
v 77 1
v 78 1
v 79 2
v 80 1
v 81 2
v 82 1
v 83 1
v 84 0
v 85 0
v 86 0
v 87 0
v 88 1
v 89 0
v 90 1
v 91 1
v 92 0
v 93 0
v 94 0
v 95 1
v 96 1
v 97 0
v 98 2
v 99 2
v 100 0
v 101 2
v 102 0
v 103 2
v 104 2
v 105 1
v 106 2
v 107 2
v 108 1
v 109 1
v 110 0
v 111 2
v 112 1
v 113 2
v 114 0
v 115 0
v 116 0
v 117 0
v 118 2
v 119 0
v 120 0
v 121 0
v 122 1
v 123 1
v 124 2
v 125 2
v 126 0
v 127 0
v 128 0
v 129 1
v 130 0
v 131 0
v 132 0
v 133 1
v 134 0
v 135 0
v 136 2
v 137 0
v 138 2
v 139 1
v 140 1
v 141 2
v 142 1
v 143 0
v 144 2
v 145 0
v 146 0
v 147 0
v 148 1
v 149 2
v 150 1
v 151 1
v 152 1
v 153 1
v 154 1
v 155 0
v 156 0
v 157 1
v 158 1
v 159 1
v 160 0
v 161 2
v 162 1
v 163 0
v 164 1
v 165 2
v 166 1
v 167 0
v 168 1
v 169 1
v 170 1
v 171 2
v 172 2
v 173 0
v 174 0
v 175 0
v 176 1
v 177 0
v 178 0
v 179 2
v 180 2
v 181 2
v 182 0
v 183 0
v 184 1
v 185 2
v 186 0
v 187 0
v 188 1
v 189 1
v 190 1
v 191 2
v 192 2
v 193 2
v 194 0
v 195 0
v 196 1
v 197 0
v 198 0
v 199 1
v 200 0
v 201 1
v 202 1
v 203 1
v 204 1
v 205 1
v 206 0
v 207 0
v 208 2
v 209 2
v 210 1
v 211 0
v 212 1
v 213 2
v 214 2
v 215 0
v 216 0
v 217 2
v 218 0
v 219 0
v 220 2
v 221 2
v 222 0
v 223 0
v 224 1
v 225 0
v 226 1
v 227 1
v 228 2
v 229 0
v 230 1
v 231 2
v 232 0
v 233 2
v 234 1
v 235 1
v 236 0
v 237 0
v 238 0
v 239 1
v 240 1
v 241 0
v 242 1
v 243 2
v 244 1
v 245 2
v 246 2
v 247 1
v 248 2
v 249 0
v 250 0
v 251 0
v 252 1
v 253 2
v 254 1
v 255 0
v 256 0
v 257 1
v 258 0
v 259 0
v 260 1
v 261 1
v 262 1
v 263 2
v 264 0
v 265 0
v 266 2
v 267 0
v 268 0
v 269 0
v 270 1
v 271 1
v 272 0
v 273 2
v 274 2
v 275 0
